\ LP format - for model browsing. Use MPS format to capture full model detail.
Minimize
 [ 2 Sum[0] ^2 + 2 Sum[1] ^2 + 2 Sum[2] ^2 + 2 Sum[3] ^2 + 2 Sum[4] ^2
   + 2 Sum[5] ^2 ] / 2 
Subject To
 c0_15: x[15,0] + x[15,1] + x[15,2] + x[15,3] + x[15,4] + x[15,5] = 1
 c0_14: x[14,0] + x[14,1] + x[14,2] + x[14,3] + x[14,4] + x[14,5] = 1
 c0_5: x[5,0] + x[5,1] + x[5,2] + x[5,3] + x[5,4] + x[5,5] = 1
 c0_10: x[10,0] + x[10,1] + x[10,2] + x[10,3] + x[10,4] + x[10,5] = 1
 c0_8: x[8,0] + x[8,1] + x[8,2] + x[8,3] + x[8,4] + x[8,5] = 1
 c0_12: x[12,0] + x[12,1] + x[12,2] + x[12,3] + x[12,4] + x[12,5] = 1
 c0_6: x[6,0] + x[6,1] + x[6,2] + x[6,3] + x[6,4] + x[6,5] = 1
 c0_13: x[13,0] + x[13,1] + x[13,2] + x[13,3] + x[13,4] + x[13,5] = 1
 c0_11: x[11,0] + x[11,1] + x[11,2] + x[11,3] + x[11,4] + x[11,5] = 1
 c0_9: x[9,0] + x[9,1] + x[9,2] + x[9,3] + x[9,4] + x[9,5] = 1
 c0_2: x[2,0] + x[2,1] + x[2,2] + x[2,3] + x[2,4] + x[2,5] = 1
 c0_0: x[0,0] + x[0,1] + x[0,2] + x[0,3] + x[0,4] + x[0,5] = 1
 c0_1: x[1,0] + x[1,1] + x[1,2] + x[1,3] + x[1,4] + x[1,5] = 1
 c0_4: x[4,0] + x[4,1] + x[4,2] + x[4,3] + x[4,4] + x[4,5] = 1
 c0_7: x[7,0] + x[7,1] + x[7,2] + x[7,3] + x[7,4] + x[7,5] = 1
 c0_3: x[3,0] + x[3,1] + x[3,2] + x[3,3] + x[3,4] + x[3,5] = 1
 c1_0: - 0.224 x[15,0] - 0.041 x[14,0] - 0.146 x[5,0] - 0.015 x[10,0]
   - 0.054 x[8,0] - 0.149 x[12,0] - 0.029 x[6,0] - 0.073 x[13,0]
   - 0.013 x[11,0] - 0.07 x[9,0] - 0.097 x[4,0] - 0.496 x[7,0]
   - 0.399 x[3,0] + Sum[0] = 0
 c1_1: - 0.224 x[15,1] - 0.041 x[14,1] - 0.146 x[5,1] - 0.015 x[10,1]
   - 0.054 x[8,1] - 0.149 x[12,1] - 0.029 x[6,1] - 0.073 x[13,1]
   - 0.013 x[11,1] - 0.07 x[9,1] - 0.097 x[4,1] - 0.496 x[7,1]
   - 0.399 x[3,1] + Sum[1] = 0
 c1_2: - 0.224 x[15,2] - 0.041 x[14,2] - 0.146 x[5,2] - 0.015 x[10,2]
   - 0.054 x[8,2] - 0.149 x[12,2] - 0.029 x[6,2] - 0.073 x[13,2]
   - 0.013 x[11,2] - 0.07 x[9,2] - 0.097 x[4,2] - 0.496 x[7,2]
   - 0.399 x[3,2] + Sum[2] = 0
 c1_3: - 0.224 x[15,3] - 0.041 x[14,3] - 0.146 x[5,3] - 0.015 x[10,3]
   - 0.054 x[8,3] - 0.149 x[12,3] - 0.029 x[6,3] - 0.073 x[13,3]
   - 0.013 x[11,3] - 0.07 x[9,3] - 0.097 x[4,3] - 0.496 x[7,3]
   - 0.399 x[3,3] + Sum[3] = 0
 c1_4: - 0.224 x[15,4] - 0.041 x[14,4] - 0.146 x[5,4] - 0.015 x[10,4]
   - 0.054 x[8,4] - 0.149 x[12,4] - 0.029 x[6,4] - 0.073 x[13,4]
   - 0.013 x[11,4] - 0.07 x[9,4] - 0.097 x[4,4] - 0.496 x[7,4]
   - 0.399 x[3,4] + Sum[4] = 0
 c1_5: - 0.224 x[15,5] - 0.041 x[14,5] - 0.146 x[5,5] - 0.015 x[10,5]
   - 0.054 x[8,5] - 0.149 x[12,5] - 0.029 x[6,5] - 0.073 x[13,5]
   - 0.013 x[11,5] - 0.07 x[9,5] - 0.097 x[4,5] - 0.496 x[7,5]
   - 0.399 x[3,5] + Sum[5] = 0
Bounds
Binaries
 x[15,0] x[15,1] x[15,2] x[15,3] x[15,4] x[15,5] x[14,0] x[14,1] x[14,2]
 x[14,3] x[14,4] x[14,5] x[5,0] x[5,1] x[5,2] x[5,3] x[5,4] x[5,5] x[10,0]
 x[10,1] x[10,2] x[10,3] x[10,4] x[10,5] x[8,0] x[8,1] x[8,2] x[8,3] x[8,4]
 x[8,5] x[12,0] x[12,1] x[12,2] x[12,3] x[12,4] x[12,5] x[6,0] x[6,1]
 x[6,2] x[6,3] x[6,4] x[6,5] x[13,0] x[13,1] x[13,2] x[13,3] x[13,4]
 x[13,5] x[11,0] x[11,1] x[11,2] x[11,3] x[11,4] x[11,5] x[9,0] x[9,1]
 x[9,2] x[9,3] x[9,4] x[9,5] x[2,0] x[2,1] x[2,2] x[2,3] x[2,4] x[2,5]
 x[0,0] x[0,1] x[0,2] x[0,3] x[0,4] x[0,5] x[1,0] x[1,1] x[1,2] x[1,3]
 x[1,4] x[1,5] x[4,0] x[4,1] x[4,2] x[4,3] x[4,4] x[4,5] x[7,0] x[7,1]
 x[7,2] x[7,3] x[7,4] x[7,5] x[3,0] x[3,1] x[3,2] x[3,3] x[3,4] x[3,5]
End
